SCIP version 0.82 [precision: 8 byte] [memory: block] [mode: optimized] [LP solver: SOPLEX 1.3.0]
Copyright (c) 2002-2006 Konrad-Zuse-Zentrum fuer Informationstechnik Berlin (ZIB)

reading parameter file <scip.set>

read problem </ufs/psxjm3/instances/random_4.ctt.e.zpl>
============

****************************************************
* Zuse Institute Mathematical Programming Language *
* Release 2.04  Copyright (C)2005 by Thorsten Koch *
****************************************************

original problem has 21520 variables (21450 bin, 70 int, 0 impl, 0 cont) and 8063 constraints

solve problem
=============

LP Solver <SOPLEX 1.3.0>: dual feasibility tolerance cannot be set -- tolerance of SCIP and LP solver may differ
LP Solver <SOPLEX 1.3.0>: barrier convergence tolerance cannot be set -- tolerance of SCIP and LP solver may differ
LP Solver <SOPLEX 1.3.0>: fastmip setting not available -- SCIP parameter has no effect
LP Solver <SOPLEX 1.3.0>: scaling not available -- SCIP parameter has no effect
LP Solver <SOPLEX 1.3.0>: presolving not available -- SCIP parameter has no effect
transformed problem has 21520 variables (21450 bin, 70 int, 0 impl, 0 cont) and 8063 constraints
   8063 constraints of type <linear>

presolving:
(round 1) 2711 del vars, 316 del conss, 2711 chg bounds, 0 chg sides, 0 chg coeffs, 0 upgd conss, 0 impls, 4306 clqs
(round 2) 2711 del vars, 576 del conss, 2711 chg bounds, 0 chg sides, 0 chg coeffs, 0 upgd conss, 0 impls, 4306 clqs
(round 3) 2711 del vars, 2534 del conss, 2711 chg bounds, 1963 chg sides, 0 chg coeffs, 0 upgd conss, 0 impls, 4306 clqs
(round 4) 2713 del vars, 2534 del conss, 2711 chg bounds, 1963 chg sides, 0 chg coeffs, 0 upgd conss, 0 impls, 4305 clqs
(round 5) 2713 del vars, 2534 del conss, 2711 chg bounds, 1964 chg sides, 0 chg coeffs, 0 upgd conss, 0 impls, 4305 clqs
(round 6) 2713 del vars, 2535 del conss, 2711 chg bounds, 1965 chg sides, 0 chg coeffs, 0 upgd conss, 0 impls, 4305 clqs
(round 7) 2713 del vars, 2535 del conss, 2711 chg bounds, 1965 chg sides, 0 chg coeffs, 5152 upgd conss, 0 impls, 4305 clqs
(round 8) 2713 del vars, 2607 del conss, 2711 chg bounds, 1965 chg sides, 3 chg coeffs, 5152 upgd conss, 0 impls, 4305 clqs
   (28.6s) probing: 100/18738 (0.5%) - 0 fixings, 0 aggregations, 0 implications, 0 bound changes
presolving (9 rounds):
 2713 deleted vars, 2607 deleted constraints, 2711 tightened bounds, 0 added holes, 1965 changed sides, 3 changed coefficients
 0 implications, 4305 cliques
presolved problem has 18807 variables (18738 bin, 69 int, 0 impl, 0 cont) and 5456 constraints
   2000 constraints of type <knapsack>
   2762 constraints of type <setppc>
    376 constraints of type <linear>
    318 constraints of type <logicor>
objective value is always integral
Presolving Time: 28.09

 time | node  | left  |LP iter| mem |mdpt |frac |vars |cons |ccons|cols |rows |cuts |confs|strbr|  dualbound   | primalbound  |  gap   
 65.0s|     1 |     0 |  7661 | 152M|   0 | 722 |  18k|5456 |5456 |  18k|5456 |   0 |   0 |   0 | 8.000000e+02 |      --      |    Inf 
 72.5s|     1 |     0 |  8741 | 155M|   0 | 781 |  18k|5456 |5456 |  18k|5462 |   6 |   0 |   0 | 8.000000e+02 |      --      |    Inf 
 81.8s|     1 |     0 |  9997 | 155M|   0 | 847 |  18k|5456 |5456 |  18k|5467 |  11 |   0 |   0 | 8.000000e+02 |      --      |    Inf 
 90.5s|     1 |     0 | 11154 | 155M|   0 | 840 |  18k|5456 |5456 |  18k|5473 |  17 |   0 |   0 | 8.000000e+02 |      --      |    Inf 
  104s|     1 |     0 | 12998 | 155M|   0 | 842 |  18k|5456 |5456 |  18k|5480 |  24 |   0 |   0 | 8.000000e+02 |      --      |    Inf 
  110s|     1 |     0 | 13763 | 155M|   0 | 860 |  18k|5456 |5456 |  18k|5485 |  29 |   0 |   0 | 8.000000e+02 |      --      |    Inf 
  124s|     1 |     0 | 15698 | 155M|   0 | 869 |  18k|5456 |5456 |  18k|5492 |  36 |   0 |   0 | 8.000000e+02 |      --      |    Inf 
  484s|     1 |     2 | 26458 | 155M|   0 | 869 |  18k|5456 |5456 |  18k|5492 |  36 |   0 |  46 | 8.000000e+02 |      --      |    Inf 
 2732s|   100 |   101 |203976 | 157M|  61 | 713 |  18k|5456 |5155 |  18k|5475 |  36 |   0 | 240 | 8.000000e+02 |      --      |    Inf 
 3902s|   200 |   201 |345877 | 159M|  65 | 649 |  18k|5456 |5112 |  18k|5475 |  36 |   0 | 304 | 8.000000e+02 |      --      |    Inf 
(node 234) solution of LP 1126 not optimal (pfeas=1, dfeas=0) -- solving again with tighter feasibility tolerance
(node 234) solution of LP 1127 not optimal (pfeas=1, dfeas=0) -- solving again from scratch
(node 234) solution of LP 1177 not optimal (pfeas=1, dfeas=0) -- solving again with tighter feasibility tolerance
(node 234) solution of LP 1178 not optimal (pfeas=1, dfeas=0) -- solving again from scratch
(node 234) solution of LP 1188 not optimal (pfeas=1, dfeas=0) -- solving again with tighter feasibility tolerance
(node 234) solution of LP 1189 not optimal (pfeas=1, dfeas=0) -- solving again from scratch
 5593s|   300 |   297 |555055 | 160M|  87 | 671 |  18k|5456 |5264 |  18k|5475 |  36 |   0 | 368 | 8.000000e+02 |      --      |    Inf 
 6691s|   400 |   395 |692911 | 162M|  87 | 586 |  18k|5456 |5072 |  18k|5475 |  36 |   0 | 430 | 8.000000e+02 |      --      |    Inf 

SCIP Status        : solving was interrupted [time limit reached]
Solving Time (sec) : 7263.89
Solving Nodes      : 490
Primal Bound       : +1.00000000000000e+20 (0 solutions)
Dual Bound         : +8.00000000000006e+02
Gap                : infinite

primal solution:
================

no solution available

Statistics
==========

SCIP Status        : solving was interrupted [time limit reached]
Solving Time       :    7263.89
Original Problem   :
  Problem name     : random_4.ctt.e.zpl
  Variables        : 21520 (21450 binary, 70 integer, 0 implicit integer, 0 continuous)
  Constraints      : 8063 initial, 8063 maximal
Presolved Problem  :
  Problem name     : t_random_4.ctt.e.zpl
  Variables        : 18807 (18738 binary, 69 integer, 0 implicit integer, 0 continuous)
  Constraints      : 5456 initial, 5456 maximal
Presolvers         :       Time  FixedVars   AggrVars   ChgTypes  ChgBounds   AddHoles    DelCons   ChgSides   ChgCoefs
  trivial          :       0.04          0          0          0          0          0          0          0          0
  inttobinary      :       0.00          0          0          0          0          0          0          0          0
  dualfix          :       0.01          1          0          0          0          0          0          0          0
  implics          :       0.02          0          0          0          0          0          0          0          0
  probing          :       3.25          0          0          0          0          0          0          0          0
  knapsack         :      15.23          0          0          0          0          0          0          0          3
  setppc           :       0.26          0          0          0          0          0         72          0          0
  linear           :       8.95       2711          1          0       2711          0       2535       1965          0
  logicor          :       0.00          0          0          0          0          0          0          0          0
  root node        :          -          0          -          -          0          -          -          -          -
Constraints        :     Number  #Separate #Propagate    #EnfoLP    #EnfoPS    Cutoffs    DomReds       Cuts      Conss   Children
  integral         :          0          0          0        486          0          0          0          0          0        972
  knapsack         :       2000          6       2467          0          0          2         88          0          0          0
  setppc           :       2762          6       2465          0          0          0      43151          0          0          0
  linear           :        376          6       1767          0          0          0       7926          0          0          0
  logicor          :        318          6        599          0          0          0        155          0          0          0
Constraint Timings :  TotalTime   Separate  Propagate     EnfoLP     EnfoPS
  integral         :    2689.32       0.00       0.00    2689.32       0.00
  knapsack         :       1.75       1.08       0.67       0.00       0.00
  setppc           :       0.90       0.00       0.90       0.00       0.00
  linear           :       5.20       0.53       4.67       0.00       0.00
  logicor          :       0.03       0.00       0.03       0.00       0.00
Propagators        :       Time      Calls    Cutoffs    DomReds
  rootredcost      :       0.00          0          0          0
  pseudoobj        :       0.05       2267          0          0
Conflict Analysis  :       Time      Calls    Success  Conflicts   Literals    Reconvs ReconvLits   LP Iters
  propagation      :       0.00          0          0          0        0.0          0        0.0          -
  infeasible LP    :       0.00          0          0          0        0.0          0        0.0          0
  bound exceed. LP :       0.00          0          0          0        0.0          0        0.0          0
  strong branching :       0.00          0          0          0        0.0          0        0.0          0
  pseudo solution  :       0.00          0          0          0        0.0          0        0.0          -
  applied globally :          -          -          -          0        0.0          -          -          -
  applied locally  :          -          -          -          0        0.0          -          -          -
Separators         :       Time      Calls    Cutoffs    DomReds       Cuts      Conss
  cut pool         :       0.00          5          -          -          1          -    (maximal pool size: 38)
  redcost          :       2.14        491          0          0          0          0
  impliedbounds    :       0.01          6          0          0          0          0
  intobj           :       0.00          0          0          0          0          0
  gomory           :       1.61          6          0          0          0          0
  strongcg         :       1.82          6          0          0          0          0
  cmir             :       3.19          6          0          0          0          0
  clique           :       0.41          6          0          0         35          0
Pricers            :       Time      Calls       Vars
  problem variables:       0.00          0          0
Branching Rules    :       Time      Calls    Cutoffs    DomReds       Cuts      Conss   Children
  relpscost        :    2689.30        486          0          0          0          0        972
  pscost           :       0.00          0          0          0          0          0          0
  inference        :       0.00          0          0          0          0          0          0
  mostinf          :       0.00          0          0          0          0          0          0
  leastinf         :       0.00          0          0          0          0          0          0
  fullstrong       :       0.00          0          0          0          0          0          0
  allfullstrong    :       0.00          0          0          0          0          0          0
Primal Heuristics  :       Time      Calls      Found
  LP solutions     :       0.00          -          0
  pseudo solutions :       0.00          -          0
  crossover        :       0.00          0          0
  guideddiving     :       0.00          0          0
  pscostdiving     :      38.83          1          0
  fracdiving       :      97.25          1          0
  linesearchdiving :      67.66          1          0
  feaspump         :      77.94          1          0
  objpscostdiving  :     617.45          1          0
  rootsoldiving    :      62.95          1          0
  simplerounding   :       1.90        499          0
  rounding         :       6.08        499          0
  shifting         :       3.99         57          0
  fixandinfer      :       0.00          0          0
  coefdiving       :     281.28          2          0
  intdiving        :       0.00          0          0
  octane           :       0.00          0          0
  rins             :       0.00          0          0
  localbranching   :       0.00          0          0
LP                 :       Time      Calls Iterations  Iter/call   Iter/sec
  primal LP        :       0.04          0          0       0.00       0.00
  dual LP          :    3272.75        496     577313    1163.94     176.40
  barrier LP       :       0.00          0          0       0.00          -
  diving/probing LP:    1224.75       1467     191170     130.31     156.09
  strong branching :    2689.05        475     445012     936.87     165.49
    (at root node) :          -         46      43595     947.72          -
  conflict analysis:       0.00          0          0       0.00          -
B&B Tree           :
  number of runs   :          1
  nodes            :        490
  nodes (total)    :        490
  nodes left       :        483
  max depth        :        139
  max depth (total):        139
  backtracks       :          7 (1.4%)
  delayed cutoffs  :          0
  repropagations   :          0 (0 domain reductions, 0 cutoffs)
  avg switch length:       2.00
  switching time   :       0.45
Solution           :
  Solutions found  :          0 (0 improvements)
  Primal Bound     :          -
  Dual Bound       : +8.00000000000006e+02
  Gap              :   infinite
  Root Dual Bound  : +8.00000000000005e+02
